861.19 0
0 22 64 42 43 41 56 23 63 51 0
0 35 14 59 66 65 31 72 0
0 30 74 28 61 48 29 4 0
0 53 11 38 10 58 0
0 16 49 24 18 55 25 50 40 0
0 12 39 9 32 44 3 17 0
0 37 20 70 60 71 69 36 47 21 68 0
0 26 7 8 19 54 13 57 15 5 0
0 67 34 46 52 27 45 0
0 6 33 1 73 62 2 75 0
